28 129
14 33
28 15
28 67
7 112
30 10
3 58
10 137
58 103
75 33
15 194
2 40
3 62
39 79
43 32
40 58
11 172
77 22
61 18
16 160
17 167
30 76
14 54
52 34
59 19
45 79
89 20
5 186
88 8
68 32
57 59
8 171
54 75
8 179
47 23
27 65
19 56
44 31
67 51
10 200
40 23
68 4
27 145
75 18
9 117
22 24
26 87
53 11
5 47
8 10
21 74
31 71
4 125
26 18
29 164
41 50
14 188
19 14
14 177
34 52
53 83
64 59
27 30
30 141
1 57
64 86
82 6
76 52
45 26
21 190
69 45
43 9
30 46
21 63
28 96
74 76
10 187
35 80
90 19
10 78
43 105
60 41
92 38
87 42
33 114
56 1
18 108
9 30
11 194
18 4
6 58
13 9
38 34
43 110
3 125
19 148
10 45
69 60
61 29
55 21
